Fe O  F  O  F  Fe O  F  O  Fe F  O  F  O 
 1.0000000000000000
     4.6944999694999998    0.0000000000000000    0.0000000000000000
     0.0000000000000000    4.6944999694999998    0.0000000000000000
     0.0000000000000000    0.0000000000000000    9.9291000365999995
 Fe  O   F   O   F   Fe  O   F   O   Fe  F   O   F   O  
   2   1   1   1   1   2   1   2   1   2   1   1   1   1
Direct
  0.0000000000000000  0.0000000000000000  0.0000000000000000
  0.4999999999999999  0.4999999999999999  0.1666666666666667
  0.3009999990000000  0.3009999990000000  0.0000000000000000
  0.6990000010000000  0.6990000010000000  0.0000000000000000
  0.1990000010000000  0.8009999990000001  0.1666666666666667
  0.8009999990000001  0.1990000010000000  0.1666666666666667
  0.0000000000000000  0.0000000000000000  0.3333333333333333
  0.4999999999999999  0.4999999999999999  0.4999999999999999
  0.3009999990000000  0.3009999990000000  0.3333333333333333
  0.6990000010000000  0.6990000010000000  0.3333333333333333
  0.1990000010000000  0.8009999990000001  0.4999999999999999
  0.8009999990000001  0.1990000010000000  0.4999999999999999
  0.0000000000000000  0.0000000000000000  0.6666666666666666
  0.4999999999999999  0.4999999999999999  0.8333333333333333
  0.3009999990000000  0.3009999990000000  0.6666666666666666
  0.6990000010000000  0.6990000010000000  0.6666666666666666
  0.1990000010000000  0.8009999990000001  0.8333333333333333
  0.8009999990000001  0.1990000010000000  0.8333333333333333
