Fe O  F  O  F  Fe O  F  O  F  Fe O  F  O 
 1.0000000000000000
    -4.6944999694999998    0.0000000000000000   -3.3097000122000000
     0.0000000000000000   -4.6944999694999998   -3.3097000122000000
    -4.6944999694999998   -4.6944999694999998    3.3097000121999991
 Fe  O   F   O   F   Fe  O   F   O   F   Fe  O   F   O  
   2   1   1   1   1   2   1   1   1   1   2   1   2   1
Direct
 -0.0000000000000000 -0.0000000000000000  0.0000000000000000
  0.6666666666666666  0.6666666666666666  0.8333333333333333
  0.8996666670000002  0.8996666670000002  0.7993333339999998
  0.7669999996666668  0.7669999996666668  0.5339999993333334
  0.9676666656666668  0.3656666676666666  0.8333333333333333
  0.3656666676666666  0.9676666656666668  0.8333333333333333
  0.6666666666666667  0.6666666666666667  0.3333333333333333
  0.3333333333333333  0.3333333333333333  0.1666666666666667
  0.5663333336666666  0.5663333336666666  0.1326666673333333
  0.4336666663333334  0.4336666663333334  0.8673333326666667
  0.6343333323333334  0.0323333343333334  0.1666666666666666
  0.0323333343333334  0.6343333323333334  0.1666666666666665
  0.3333333333333334  0.3333333333333334  0.6666666666666666
  0.0000000000000001  0.0000000000000001  0.4999999999999998
  0.2330000003333332  0.2330000003333332  0.4660000006666666
  0.1003333330000000  0.1003333330000000  0.2006666660000000
  0.3009999989999999  0.6990000010000000  0.4999999999999999
  0.6990000010000001  0.3009999989999999  0.4999999999999998
