Fe O  F  O  Fe O  F  Fe O  F  O 
 1.0000000000000000
     0.0000000000000000    0.0000000000000000    3.3097000122000000
     4.6944999694999998    0.0000000000000000    0.0000000000000000
     0.0000000000000000   14.0834999084999986    0.0000000000000000
 Fe  O   F   O   Fe  O   F   Fe  O   F   O  
   2   1   1   2   2   1   3   2   1   2   1
Direct
  0.0000000000000000  0.0000000000000000  0.0000000000000000
  0.4999999999999999  0.4999999999999999  0.1666666666666667
  0.0000000000000000  0.3009999990000000  0.1003333330000000
  0.0000000000000000  0.6990000010000000  0.2330000003333334
  0.4999999999999999  0.1990000010000000  0.2669999996666668
  0.4999999999999999  0.8009999990000001  0.0663333336666667
  0.0000000000000000  0.0000000000000000  0.3333333333333334
  0.4999999999999999  0.4999999999999999  0.5000000000000000
  0.0000000000000000  0.3009999990000000  0.4336666663333335
  0.0000000000000000  0.6990000010000000  0.5663333336666667
  0.4999999999999999  0.1990000010000000  0.6003333330000002
  0.4999999999999999  0.8009999990000001  0.3996666670000001
  0.0000000000000000  0.0000000000000000  0.6666666666666667
  0.4999999999999999  0.4999999999999999  0.8333333333333336
  0.0000000000000000  0.3009999990000000  0.7669999996666670
  0.0000000000000000  0.6990000010000000  0.8996666670000001
  0.4999999999999999  0.1990000010000000  0.9336666663333334
  0.4999999999999999  0.8009999990000001  0.7330000003333336
