Fe O  F  Fe F  O  F  Fe F  O  F 
 1.0000000000000000
     4.6944999694999998    0.0000000000000000    0.0000000000000000
     0.0000000000000000    4.6944999694999998    3.3097000122000000
     0.0000000000000000   -4.6944999694999998    6.6194000243999991
 Fe  O   F   Fe  F   O   F   Fe  F   O   F  
   2   3   1   2   1   1   2   2   1   2   1
Direct
  0.0000000000000000  0.0000000000000000  0.0000000000000000
  0.4999999999999999  0.4999999999999999  0.0000000000000000
  0.3009999990000000  0.2006666659999999  0.8996666670000001
  0.6990000010000000  0.4660000006666666  0.7669999996666667
  0.1990000010000000  0.7006666660000002  0.8996666670000000
  0.8009999990000001  0.2993333340000000  0.1003333330000000
  0.0000000000000000  0.3333333333333333  0.3333333333333333
  0.4999999999999999  0.8333333333333334  0.3333333333333333
  0.3009999990000000  0.5339999993333334  0.2330000003333333
  0.6990000010000000  0.7993333340000001  0.1003333330000000
  0.1990000010000000  0.0339999993333336  0.2330000003333333
  0.8009999990000001  0.6326666673333333  0.4336666663333333
  0.0000000000000000  0.6666666666666666  0.6666666666666666
  0.4999999999999999  0.1666666666666665  0.6666666666666666
  0.3009999990000000  0.8673333326666668  0.5663333336666666
  0.6990000010000000  0.1326666673333333  0.4336666663333333
  0.1990000010000000  0.3673333326666666  0.5663333336666665
  0.8009999990000001  0.9660000006666667  0.7669999996666667
