Fe O  F  Fe O  F  O  F  Fe O  F  O 
 1.0000000000000000
     0.0000000000000000    0.0000000000000000   -3.3097000122000000
     4.6944999694999998    4.6944999694999998    0.0000000000000000
     4.6944999694999998   -9.3889999389999979    0.0000000000000000
 Fe  O   F   Fe  O   F   O   F   Fe  O   F   O  
   2   2   2   2   1   1   1   1   2   1   2   1
Direct
 -0.0000000000000000  0.0000000000000000  0.0000000000000000
  0.5000000000000001  0.4999999999999999  0.0000000000000000
 -0.0000000000000000  0.3009999990000000  0.0000000000000000
 -0.0000000000000000  0.6990000010000000  0.0000000000000000
  0.5000000000000001  0.3996666670000003  0.7993333340000002
  0.5000000000000001  0.6003333330000000  0.2006666660000000
 -0.0000000000000000  0.3333333333333334  0.6666666666666666
  0.5000000000000001  0.8333333333333334  0.6666666666666667
 -0.0000000000000000  0.6343333323333334  0.6666666666666666
 -0.0000000000000000  0.0323333343333334  0.6666666666666666
  0.5000000000000001  0.7330000003333335  0.4660000006666665
  0.5000000000000001  0.9336666663333333  0.8673333326666668
 -0.0000000000000000  0.6666666666666669  0.3333333333333332
  0.5000000000000001  0.1666666666666671  0.3333333333333332
 -0.0000000000000000  0.9676666656666668  0.3333333333333331
 -0.0000000000000000  0.3656666676666670  0.3333333333333332
  0.5000000000000001  0.0663333336666668  0.1326666673333332
  0.5000000000000001  0.2669999996666670  0.5339999993333335
