Fe  O  F Fe  F  O  F Fe  O  F  O Fe  F  O  F 
 1.0000000000000000
    -4.6944999694999998    0.0000000000000000    0.0000000000000000
     0.0000000000000000    4.6944999694999998    3.3097000122000000
     0.0000000000000000    4.6944999694999998   -9.9291000365999995
 Fe  O   F   Fe  F   O   F   Fe  O   F   O   Fe  F   O   F  
   2   3   1   2   2   1   1   2   2   1   1   2   2   1   1
Direct
 -0.0000000000000000  0.0000000000000000 -0.0000000000000000
  0.5000000000000001  0.4999999999999999 -0.0000000000000000
  0.6990000010000000  0.2257499992500000  0.0752499997500000
  0.3009999989999999  0.5242500007500001  0.1747500002500000
  0.8009999990000001  0.7257499992500001  0.0752499997500000
  0.1990000009999999  0.2742500007500001  0.9247500002500000
 -0.0000000000000000  0.2500000000000001  0.7500000000000001
  0.5000000000000001  0.7500000000000000  0.7500000000000001
  0.6990000010000000  0.4757499992500000  0.8252499997500000
  0.3009999989999999  0.7742500007499999  0.9247500002500000
  0.8009999990000001  0.9757499992500001  0.8252499997500001
  0.1990000009999999  0.5242500007500002  0.6747500002499999
 -0.0000000000000000  0.5000000000000000  0.5000000000000000
  0.5000000000000001 -0.0000000000000001  0.5000000000000000
  0.6990000010000000  0.7257499992500001  0.5752499997499999
  0.3009999989999999  0.0242500007500000  0.6747500002500001
  0.8009999990000001  0.2257499992500000  0.5752499997500001
  0.1990000009999999  0.7742500007500001  0.4247500002500000
 -0.0000000000000000  0.7500000000000000  0.2499999999999999
  0.5000000000000001  0.2500000000000001  0.2500000000000000
  0.6990000010000000  0.9757499992499998  0.3252499997500001
  0.3009999989999999  0.2742500007499999  0.4247500002500000
  0.8009999990000001  0.4757499992500001  0.3252499997500001
  0.1990000009999999  0.0242500007500000  0.1747500002499999
