Fe  O  F  O Fe  O  F  O  F Fe  O  F Fe  O  F  O 
 1.0000000000000000
     0.0000000000000000    0.0000000000000000    3.3097000122000000
     4.6944999694999998    0.0000000000000000    0.0000000000000000
     0.0000000000000000   18.7779998779999993    0.0000000000000000
 Fe  O   F   O   Fe  O   F   O   F   Fe  O   F   Fe  O   F   O  
   2   1   1   2   2   1   1   1   1   2   1   3   2   1   2   1
Direct
  0.0000000000000000  0.0000000000000000  0.0000000000000000
  0.4999999999999999  0.4999999999999999  0.1250000000000000
  0.0000000000000000  0.3009999990000000  0.0752499997500000
  0.0000000000000000  0.6990000010000000  0.1747500002500000
  0.4999999999999999  0.1990000010000000  0.2002499997500000
  0.4999999999999999  0.8009999990000001  0.0497500002500000
  0.0000000000000000  0.0000000000000000  0.2500000000000000
  0.4999999999999999  0.4999999999999999  0.3750000000000000
  0.0000000000000000  0.3009999990000000  0.3252499997500000
  0.0000000000000000  0.6990000010000000  0.4247500002500000
  0.4999999999999999  0.1990000010000000  0.4502499997500000
  0.4999999999999999  0.8009999990000001  0.2997500002500000
  0.0000000000000000  0.0000000000000000  0.4999999999999999
  0.4999999999999999  0.4999999999999999  0.6250000000000000
  0.0000000000000000  0.3009999990000000  0.5752499997500000
  0.0000000000000000  0.6990000010000000  0.6747500002500000
  0.4999999999999999  0.1990000010000000  0.7002499997500000
  0.4999999999999999  0.8009999990000001  0.5497500002500000
  0.0000000000000000  0.0000000000000000  0.7500000000000000
  0.4999999999999999  0.4999999999999999  0.8750000000000000
  0.0000000000000000  0.3009999990000000  0.8252499997500000
  0.0000000000000000  0.6990000010000000  0.9247500002500001
  0.4999999999999999  0.1990000010000000  0.9502499997499999
  0.4999999999999999  0.8009999990000001  0.7997500002500001
