Fe  O  F Fe  F  O  F Fe  F  O  F Fe  O  F  O  F 
 1.0000000000000000
    -4.6944999694999998    0.0000000000000000   -3.3097000122000000
    -4.6944999694999998   -4.6944999694999998    3.3097000122000000
    -4.6944999694999998    4.6944999694999998    3.3097000122000000
 Fe  O   F   Fe  F   O   F   Fe  F   O   F   Fe  O   F   O   F  
   2   3   1   2   1   2   1   2   2   1   1   2   1   1   1   1
Direct
 -0.0000000000000000  0.0000000000000000  0.0000000000000000
  0.5000000000000001  0.7500000000000001  0.2500000000000000
  0.8495000005000002  0.7742500007499998  0.0752499997500000
  0.6504999995000001  0.4757499992500000  0.1747500002500000
  0.6504999994999998  0.6747500002500002  0.4757499992500000
  0.3495000004999998  0.8252499997500001  0.0242500007500000
  0.5000000000000001  0.2500000000000000  0.2500000000000000
  0.0000000000000001  0.0000000000000000  0.4999999999999999
  0.3495000004999999  0.0242500007500000  0.3252499997500000
  0.1504999995000002  0.7257499992499998  0.4247500002500000
  0.1504999995000001  0.9247500002500001  0.7257499992499999
  0.8495000005000001  0.0752499997500001  0.2742500007499999
 -0.0000000000000000  0.4999999999999999  0.4999999999999999
  0.5000000000000004  0.2499999999999999  0.7500000000000000
  0.8495000005000001  0.2742500007500001  0.5752499997500000
  0.6504999995000003  0.9757499992500001  0.6747500002499999
  0.6504999995000003  0.1747500002499999  0.9757499992500001
  0.3495000005000004  0.3252499997499999  0.5242500007499999
  0.5000000000000001  0.7500000000000000  0.7500000000000000
  0.0000000000000003  0.4999999999999999  0.0000000000000001
  0.3495000005000002  0.5242500007499999  0.8252499997499999
  0.1504999995000003  0.2257499992499998  0.9247500002500001
  0.1504999994999999  0.4247500002499998  0.2257499992500001
  0.8495000005000001  0.5752499997499999  0.7742500007499999
