Fe  O  F  O  F Fe  O  F  O  F Fe  O  F  O  F Fe  O  F  O 
 1.0000000000000000
     4.6944999694999998    4.6944999694999998    0.0000000000000000
     4.6944999694999998   -4.6944999694999998    0.0000000000000000
    -4.6944999694999998    0.0000000000000000   -6.6194000244000000
 Fe  O   F   O   F   Fe  O   F   O   F   Fe  O   F   O   F   Fe  O   F   O  
   2   1   1   1   1   2   1   1   1   1   2   1   1   1   1   2   1   2   1
Direct
  0.0000000000000000 -0.0000000000000000 -0.0000000000000000
  0.3750000000000001  0.8750000000000002  0.7500000000000001
  0.3009999990000000 -0.0000000000000000 -0.0000000000000000
  0.6990000010000000 -0.0000000000000000 -0.0000000000000000
  0.3750000000000000  0.5740000010000000  0.7500000000000001
  0.3750000000000001  0.1759999990000000  0.7500000000000001
  0.7500000000000001  0.7500000000000001  0.5000000000000001
  0.1250000000000001  0.6250000000000000  0.2499999999999999
  0.0509999990000000  0.7500000000000001  0.5000000000000001
  0.4490000010000000  0.7500000000000001  0.5000000000000001
  0.1250000000000002  0.3240000010000000  0.2499999999999999
  0.1250000000000002  0.9259999990000002  0.2499999999999999
  0.5000000000000001  0.5000000000000001 -0.0000000000000001
  0.8750000000000002  0.3749999999999999  0.7500000000000003
  0.8009999990000001  0.5000000000000001 -0.0000000000000001
  0.1990000010000000  0.5000000000000001 -0.0000000000000001
  0.8750000000000002  0.0740000010000000  0.7500000000000003
  0.8750000000000002  0.6759999990000003  0.7500000000000003
  0.2500000000000000  0.2500000000000000  0.5000000000000001
  0.6250000000000001  0.1249999999999999  0.2500000000000001
  0.5509999990000001  0.2500000000000000  0.5000000000000001
  0.9490000010000000  0.2500000000000000  0.5000000000000001
  0.6250000000000001  0.8240000010000000  0.2500000000000001
  0.6250000000000003  0.4259999989999999  0.2500000000000001
