Fe  O  F  O  F Fe  O  F  O Fe  O  F  O  F Fe  O  F  O 
 1.0000000000000000
     0.0000000000000000    0.0000000000000000   -6.6194000244000000
    -4.6944999694999998   -4.6944999694999998    0.0000000000000000
    -4.6944999694999998    4.6944999694999998    3.3097000122000000
 Fe  O   F   O   F   Fe  O   F   O   Fe  O   F   O   F   Fe  O   F   O  
   2   1   1   1   1   2   1   2   1   2   1   1   1   1   2   1   2   1
Direct
 -0.0000000000000000 -0.0000000000000000 -0.0000000000000000
  0.7500000000000001  0.5000000000000001 -0.0000000000000000
 -0.0000000000000000  0.6990000010000000 -0.0000000000000000
 -0.0000000000000000  0.3009999989999999 -0.0000000000000000
  0.9004999995000000  0.4999999999999998  0.3009999990000000
  0.5995000005000001  0.4999999999999998  0.6990000010000000
  0.5000000000000001 -0.0000000000000000 -0.0000000000000000
  0.2499999999999999  0.5000000000000001 -0.0000000000000000
  0.5000000000000001  0.6990000010000000 -0.0000000000000000
  0.5000000000000001  0.3009999989999999 -0.0000000000000000
  0.4004999994999999  0.4999999999999998  0.3009999990000000
  0.0995000004999999  0.4999999999999998  0.6990000010000000
  0.2500000000000000  0.5000000000000001  0.4999999999999999
 -0.0000000000000000 -0.0000000000000001  0.4999999999999999
  0.2500000000000000  0.1990000009999999  0.4999999999999999
  0.2500000000000000  0.8009999990000001  0.4999999999999999
  0.1504999995000000 -0.0000000000000001  0.8009999990000001
  0.8495000005000001 -0.0000000000000000  0.1990000009999999
  0.7500000000000001  0.5000000000000001  0.4999999999999999
  0.5000000000000001 -0.0000000000000001  0.4999999999999999
  0.7500000000000001  0.1990000009999999  0.4999999999999999
  0.7500000000000001  0.8009999990000001  0.4999999999999999
  0.6504999995000001 -0.0000000000000001  0.8009999990000001
  0.3495000005000000 -0.0000000000000000  0.1990000009999999
