Fe  O  F Fe  F  O  F Fe  F  O  F Fe  F  O  F 
 1.0000000000000000
    -4.6944999694999998    0.0000000000000000    0.0000000000000000
     0.0000000000000000    4.6944999694999998    6.6194000244000000
     0.0000000000000000    4.6944999694999998   -6.6194000244000000
 Fe  O   F   Fe  F   O   F   Fe  F   O   F   Fe  F   O   F  
   2   3   1   2   1   2   1   2   2   1   1   2   1   2   1
Direct
 -0.0000000000000000  0.0000000000000000  0.0000000000000000
  0.5000000000000001  0.3750000000000000  0.1250000000000000
  0.6990000010000000  0.1504999995000000  0.1504999995000000
  0.3009999989999999  0.3495000005000000  0.3495000005000000
  0.8009999990000001  0.5254999995000000  0.2754999995000000
  0.1990000009999999  0.2245000005000001  0.9745000005000002
 -0.0000000000000000  0.2500000000000000  0.7500000000000001
  0.5000000000000001  0.6250000000000001  0.8750000000000002
  0.6990000010000000  0.4004999994999999  0.9004999995000000
  0.3009999989999999  0.5995000005000001  0.0995000005000000
  0.8009999990000001  0.7754999995000000  0.0254999995000001
  0.1990000009999999  0.4745000005000000  0.7245000005000001
 -0.0000000000000000  0.4999999999999999  0.5000000000000001
  0.5000000000000001  0.8750000000000000  0.6250000000000001
  0.6990000010000000  0.6504999994999999  0.6504999995000001
  0.3009999989999999  0.8495000005000001  0.8495000005000002
  0.8009999990000001  0.0254999995000000  0.7754999995000001
  0.1990000009999999  0.7245000004999997  0.4745000005000000
 -0.0000000000000000  0.7500000000000000  0.2499999999999999
  0.5000000000000001  0.1250000000000001  0.3749999999999999
  0.6990000010000000  0.9004999994999999  0.4004999995000000
  0.3009999989999999  0.0995000005000000  0.5995000005000001
  0.8009999990000001  0.2754999995000001  0.5254999995000001
  0.1990000009999999  0.9745000005000001  0.2245000005000000
