Fe  O  F  O  F Fe  O  F  O  F Fe  O  F  O  F Fe  O  F  O 
 1.0000000000000000
    -4.6944999694999998    0.0000000000000000   -3.3097000122000000
     0.0000000000000000   -4.6944999694999998   -3.3097000122000000
    -4.6944999694999998   -4.6944999694999998    6.6194000243999991
 Fe  O   F   O   F   Fe  O   F   O   F   Fe  O   F   O   F   Fe  O   F   O  
   2   1   1   1   1   2   1   1   1   1   2   1   1   1   1   2   1   2   1
Direct
 -0.0000000000000000 -0.0000000000000000  0.0000000000000000
  0.6250000000000003  0.6250000000000003  0.8750000000000000
  0.8495000005000001  0.8495000005000001  0.8495000005000001
  0.6504999995000001  0.6504999995000001  0.6504999994999999
  0.9259999990000002  0.3240000009999999  0.8750000000000000
  0.3240000009999999  0.9259999990000002  0.8750000000000000
  0.7500000000000001  0.7500000000000001  0.2500000000000000
  0.3750000000000000  0.3750000000000000  0.1249999999999999
  0.5995000005000001  0.5995000005000001  0.0995000005000000
  0.4004999995000001  0.4004999995000001  0.9004999994999999
  0.6759999990000000  0.0740000009999998  0.1249999999999999
  0.0740000009999998  0.6759999990000000  0.1249999999999999
  0.5000000000000002  0.5000000000000002  0.4999999999999998
  0.1250000000000002  0.1250000000000002  0.3749999999999999
  0.3495000004999999  0.3495000004999999  0.3495000005000000
  0.1504999994999999  0.1504999994999999  0.1504999995000000
  0.4259999989999999  0.8240000010000000  0.3749999999999999
  0.8240000010000000  0.4259999989999999  0.3749999999999999
  0.2500000000000001  0.2500000000000001  0.7499999999999998
  0.8750000000000006  0.8750000000000006  0.6249999999999998
  0.0995000004999999  0.0995000004999999  0.5995000004999999
  0.9004999995000003  0.9004999995000003  0.4004999994999999
  0.1759999990000001  0.5740000010000004  0.6249999999999998
  0.5740000010000004  0.1759999990000001  0.6249999999999998
