Fe  O  F  O  F Fe  O  F  O  F Fe  O  F  O  F Fe  O  F  O 
 1.0000000000000000
     4.6944999694999998    0.0000000000000000    0.0000000000000000
     0.0000000000000000    4.6944999694999998    0.0000000000000000
     0.0000000000000000    0.0000000000000000   13.2388000487999999
 Fe  O   F   O   F   Fe  O   F   O   F   Fe  O   F   O   F   Fe  O   F   O  
   2   1   1   1   1   2   1   1   1   1   2   1   1   1   1   2   1   2   1
Direct
  0.0000000000000000  0.0000000000000000  0.0000000000000000
  0.4999999999999999  0.4999999999999999  0.1250000000000000
  0.3009999990000000  0.3009999990000000  0.0000000000000000
  0.6990000010000000  0.6990000010000000  0.0000000000000000
  0.1990000010000000  0.8009999990000001  0.1250000000000000
  0.8009999990000001  0.1990000010000000  0.1250000000000000
  0.0000000000000000  0.0000000000000000  0.2500000000000000
  0.4999999999999999  0.4999999999999999  0.3750000000000000
  0.3009999990000000  0.3009999990000000  0.2500000000000000
  0.6990000010000000  0.6990000010000000  0.2500000000000000
  0.1990000010000000  0.8009999990000001  0.3750000000000000
  0.8009999990000001  0.1990000010000000  0.3750000000000000
  0.0000000000000000  0.0000000000000000  0.4999999999999999
  0.4999999999999999  0.4999999999999999  0.6249999999999999
  0.3009999990000000  0.3009999990000000  0.4999999999999999
  0.6990000010000000  0.6990000010000000  0.4999999999999999
  0.1990000010000000  0.8009999990000001  0.6249999999999999
  0.8009999990000001  0.1990000010000000  0.6249999999999999
  0.0000000000000000  0.0000000000000000  0.7500000000000000
  0.4999999999999999  0.4999999999999999  0.8750000000000000
  0.3009999990000000  0.3009999990000000  0.7500000000000000
  0.6990000010000000  0.6990000010000000  0.7500000000000000
  0.1990000010000000  0.8009999990000001  0.8750000000000000
  0.8009999990000001  0.1990000010000000  0.8750000000000000
