Fe O  F                                 
   1.00000000000000     
     2.9767229402531199    0.0000000000000000    0.0000000000000000
     0.0000000000000000    4.6192897783977500    0.0000000000000000
     0.0000000000000000    0.0000000000000000    4.6054304192808999
   Fe   O    F 
     2     2     2
Direct
  0.0000000000000000  0.0013626846513617  0.0451299049396496
  0.5000000000000000  0.5013626846513617  0.4548700950603504
  0.0000000000000000  0.2980846167746094  0.3021474298231297
  0.5000000000000000  0.7980846167746094  0.1978525701768703
  0.0000000000000000  0.7005526985740289  0.7019746293456066
  0.5000000000000000  0.2005526985740289  0.7980253706543934
 
  0.00000000E+00  0.00000000E+00  0.00000000E+00
  0.00000000E+00  0.00000000E+00  0.00000000E+00
  0.00000000E+00  0.00000000E+00  0.00000000E+00
  0.00000000E+00  0.00000000E+00  0.00000000E+00
  0.00000000E+00  0.00000000E+00  0.00000000E+00
  0.00000000E+00  0.00000000E+00  0.00000000E+00
