Fe O  F                                   [TET,TET,tP12] (STD_PRIM doi:10.1016/j.commatsci.2010.05.010)
1.000000
   6.50753075780808   0.00000000000000   0.00000000000000
   0.00000000000000   6.50753075780808   0.00000000000000
   0.00000000000000   0.00000000000000   2.96532986654136
Fe O F 
4 4 4 
Direct(12) [A4B4C4] 
   0.97912184520478   0.98087081092093   0.00000000000000  Fe    
   0.98087081092093   0.52087815479522   0.50000000000000  Fe    
   0.52087815479522   0.51912918907907   0.00000000000000  Fe    
   0.51912918907907   0.97912184520478   0.50000000000000  Fe    
   0.00554178166891   0.70251223949610   0.00000000000000  O     
   0.70251223949610   0.49445821833109   0.50000000000000  O     
   0.49445821833109   0.79748776050390   0.00000000000000  O     
   0.79748776050390   0.00554178166891   0.50000000000000  O     
   0.00843378608029   0.29951449669230   0.00000000000000  F     
   0.29951449669230   0.49156621391971   0.50000000000000  F     
   0.49156621391971   0.20048550330770   0.00000000000000  F     
   0.20048550330770   0.00843378608029   0.50000000000000  F 