Fe O  F  [MCL,MCL,mP18] (STD_PRIM doi:10.1016/j.commatsci.2010.05.010)
1.000000
   2.97257892986136   0.00000000000000   0.00000000000000
   0.00000000000000   6.51341819480478   0.00000000000000
   0.00000000000000   3.24799217169568   9.77777468187930
Fe O F 
6 6 6 
Direct(18) [A6B6C6] 
   0.00000000000000   0.01414130572711   0.01423691446040  Fe    
   0.50000000000000   0.48645551458234   0.98449260217002  Fe    
   0.00000000000000   0.64043169148339   0.68071693366690  Fe    
   0.50000000000000   0.19575566850919   0.65157906841925  Fe    
   0.00000000000000   0.34701109362654   0.34788590988012  Fe    
   0.50000000000000   0.81888196250285   0.31803831530769  Fe    
   0.00000000000000   0.29938757132667   0.99844988678935  O     
   0.50000000000000   0.60660493141894   0.80029708085931  O     
   0.00000000000000   0.36880268100039   0.66709034801957  O     
   0.50000000000000   0.26004760538271   0.46721272036160  O     
   0.00000000000000   0.63073728871048   0.33670093319745  O     
   0.50000000000000   0.93078127333756   0.13328558813120  O     
   0.00000000000000   0.69846379554333   0.00357445637253  F     
   0.50000000000000   0.39874903455010   0.19903356938861  F     
   0.00000000000000   0.96615267857707   0.66811186741156  F     
   0.50000000000000   0.05927462767563   0.86540376929708  F     
   0.00000000000000   0.03532502550484   0.33147461390276  F     
   0.50000000000000   0.74299625054088   0.53241542236456  F   