Fe O  F 
 1.0000000000000000
     2.9708778168055199    0.0000000000000000    0.0000000000000000
     0.0000000000000000    6.5114754542322402    0.0000000000000000
     0.0000000000000000    0.0000000000000000    6.5195902302831099
 Fe  O   F  
   4   4   4
Cartesian
  0.0000000000000000  6.3755438907986175  0.1494937667097147
  1.4854389084027599  6.3797778326095145  3.1216195140477625
  0.0000000000000000  3.3916692905497432  3.4092888818513347
  1.4854389084027599  3.3874353487388458  6.3814146291893179
  0.0000000000000000  0.0338225214708888  1.9523418871664113
  1.4854389084027599  4.5670210566463486  3.2542932593665976
  0.0000000000000000  3.2219152056452312  5.2121370023079665
  1.4854389084027599  5.2001921247020118  6.5140883745081526
  0.0000000000000000  0.0470312288110502  4.5742643130616329
  1.4854389084027599  1.9491118687474038  3.2469628353555899
  0.0000000000000000  3.2087064983050699  1.3144691979200784
  1.4854389084027599  1.3066258583687160  6.5067579504972102