Fe  O Fe  O  F  O  F 
 1.0000000000000000
     0.0000000000000000    0.0000000000000000    3.3097000122000000
     4.6944999694999998    0.0000000000000000    0.0000000000000000
     0.0000000000000000    9.3889999389999996    0.0000000000000000
 Fe  O   Fe  O   F   O   F  
   2   4   2   1   1   1   1
Direct
  0.0000000000000000  0.0000000000000000  0.0000000000000000
  0.4999999999999999  0.4999999999999999  0.2500000000000000
  0.0000000000000000  0.3009999990000000  0.1504999995000000
  0.0000000000000000  0.6990000010000000  0.3495000005000000
  0.4999999999999999  0.1990000010000000  0.4004999995000000
  0.4999999999999999  0.8009999990000001  0.0995000005000000
  0.0000000000000000  0.0000000000000000  0.4999999999999999
  0.4999999999999999  0.4999999999999999  0.7500000000000000
  0.0000000000000000  0.3009999990000000  0.6504999995000000
  0.0000000000000000  0.6990000010000000  0.8495000005000001
  0.4999999999999999  0.1990000010000000  0.9004999995000000
  0.4999999999999999  0.8009999990000001  0.5995000005000000
