Fe  O Fe  F 
 1.0000000000000000
     4.6944999694999998    0.0000000000000000    0.0000000000000000
     0.0000000000000000    4.6944999694999998    3.3097000122000000
     0.0000000000000000   -4.6944999694999998    3.3097000122000000
 Fe  O   Fe  F  
   2   4   2   4
Direct
  0.0000000000000000  0.0000000000000000  0.0000000000000000
  0.4999999999999999  0.4999999999999999  0.0000000000000000
  0.3009999990000000  0.1504999995000000  0.8495000005000001
  0.6990000010000000  0.3495000004999999  0.6504999994999999
  0.1990000010000000  0.6504999995000003  0.8495000005000001
  0.8009999990000001  0.3495000005000000  0.1504999995000000
  0.0000000000000000  0.4999999999999999  0.4999999999999999
  0.4999999999999999 -0.0000000000000002  0.4999999999999999
  0.3009999990000000  0.6504999995000000  0.3495000005000000
  0.6990000010000000  0.8495000005000001  0.1504999994999999
  0.1990000010000000  0.1504999995000001  0.3495000004999999
  0.8009999990000001  0.8495000005000000  0.6504999994999998
