Fe  O  F  O  F Fe  F 
 1.0000000000000000
     0.0000000000000000    0.0000000000000000   -3.3097000122000000
     4.6944999694999998    4.6944999694999998    0.0000000000000000
     4.6944999694999998   -4.6944999694999998    0.0000000000000000
 Fe  O   F   O   F   Fe  F  
   2   1   1   1   1   2   4
Direct
 -0.0000000000000000  0.0000000000000000  0.0000000000000000
  0.5000000000000001  0.4999999999999999  0.0000000000000000
 -0.0000000000000000  0.3009999990000000  0.0000000000000000
 -0.0000000000000000  0.6990000010000000  0.0000000000000000
  0.5000000000000001  0.5000000000000001  0.6990000010000000
  0.5000000000000001  0.5000000000000001  0.3009999990000000
 -0.0000000000000000  0.4999999999999999  0.5000000000000001
  0.5000000000000001  0.0000000000000001  0.5000000000000001
 -0.0000000000000000  0.8009999990000001  0.5000000000000001
 -0.0000000000000000  0.1990000010000002  0.5000000000000001
  0.5000000000000001  0.0000000000000000  0.1990000009999999
  0.5000000000000001  0.0000000000000001  0.8009999990000002
