Fe  O Fe  O  F 
 1.0000000000000000
     4.6944999694999998    0.0000000000000000    0.0000000000000000
     0.0000000000000000    4.6944999694999998    0.0000000000000000
     0.0000000000000000    0.0000000000000000    6.6194000244000000
 Fe  O   Fe  O   F  
   2   4   2   3   1
Direct
  0.0000000000000000  0.0000000000000000  0.0000000000000000
  0.4999999999999999  0.4999999999999999  0.2500000000000000
  0.3009999990000000  0.3009999990000000  0.0000000000000000
  0.6990000010000000  0.6990000010000000  0.0000000000000000
  0.1990000010000000  0.8009999990000001  0.2500000000000000
  0.8009999990000001  0.1990000010000000  0.2500000000000000
  0.0000000000000000  0.0000000000000000  0.4999999999999999
  0.4999999999999999  0.4999999999999999  0.7500000000000000
  0.3009999990000000  0.3009999990000000  0.4999999999999999
  0.6990000010000000  0.6990000010000000  0.4999999999999999
  0.1990000010000000  0.8009999990000001  0.7500000000000000
  0.8009999990000001  0.1990000010000000  0.7500000000000000
