Fe  O  F Fe  F  O 
 1.0000000000000000
     0.0000000000000000   -4.6944999694999998   -3.3097000122000000
     0.0000000000000000    4.6944999694999998   -3.3097000122000000
     4.6944999694999998    0.0000000000000000    3.3097000122000000
 Fe  O   F   Fe  F   O  
   2   3   1   2   3   1
Direct
 -0.0000000000000000 -0.0000000000000000  0.0000000000000000
  0.7500000000000001  0.2500000000000000  0.4999999999999999
 -0.0000000000000000  0.3009999990000000  0.3009999990000000
 -0.0000000000000000  0.6990000010000000  0.6990000010000000
  0.4490000009999999  0.2500000000000000  0.1990000010000000
  0.0509999990000000  0.2500000000000000  0.8009999990000001
  0.5000000000000001  0.5000000000000001  0.0000000000000000
  0.2500000000000000  0.7500000000000001  0.4999999999999999
  0.5000000000000002  0.8009999990000002  0.3009999990000000
  0.5000000000000001  0.1990000010000000  0.6990000010000000
  0.9490000010000000  0.7500000000000001  0.1990000010000000
  0.5509999990000001  0.7500000000000001  0.8009999990000001
